Results/Experiment 1 Results/Existing Benchmark/RES_20/i-20-75-1.txt
solutions: 1 nodes: 3  modelTime: 128  solveTime: 11  totalTime: 142  modelSize: 7358  readTime: 3 matchingSize: 10
