Results/Experiment 2 Results/Existing Benchmark/i-20-75-1.lp
clingo version 5.4.0
Reading from tempSRTISolver.lp ...
Solving...
Answer: 1
matched(17,2) matched(7,3) matched(9,4) matched(13,5) matched(16,6) matched(3,7) matched(15,8) matched(14,10) matched(1,11) matched(5,13) matched(8,15) matched(6,16) matched(2,17) matched(20,18) matched(11,1) matched(4,9) matched(10,14) matched(12,19) matched(18,20) matched(19,12)
Optimization: 79
OPTIMUM FOUND

Models       : 1
  Optimum    : yes
Optimization : 79
Calls        : 1
Time         : 0.028s (Solving: 0.00s 1st Model: 0.00s Unsat: 0.00s)
CPU Time     : 0.026s
